p cnf 34 33
11 12 13 14 0
21 22 23 24 0
31 32 33 34 0
-11 -12 0
-11 -13 0
-11 -14 0
-12 -13 0
-12 -14 0
-13 -14 0
-21 -22 0
-21 -23 0
-21 -24 0
-22 -23 0
-22 -24 0
-23 -24 0
-31 -32 0
-31 -33 0
-31 -34 0
-32 -33 0
-32 -34 0
-33 -34 0
-11 -21 0
-12 -22 0
-13 -23 0
-14 -24 0
-11 -31 0
-12 -32 0
-13 -33 0
-14 -34 0
-21 -31 0
-22 -32 0
-23 -33 0
-24 -34 0